%%
% Autogenerated by /opt/prj/battleships-ai/src/server/solver.py, instance 4 10x10 [8] #4 <g1n6o6m1k1zi>
% Source: https://www.puzzle-battleships.com/?size=4
%%

size = 10;
hints_num = 5;
hints = [| 1, 8 | 3, 3 | 4, 9 | 6, 3 | 7, 5 |];
ships_num = 10;

constr_rows = [4, 1, 3, 3, 3, 1, 1, 1, 1, 2];
constr_cols = [4, 0, 2, 3, 3, 2, 0, 4, 1, 1];

given_ships = [|
<>, <>, <>, <>, 1, |
<>, <>, <>, <>, 1, |
<>, <>, <>, <>, 1, |
<>, <>, <>, <>, 1, |
<>, <>, <>, <>, 2, |
<>, <>, <>, <>, 2, |
<>, <>, <>, <>, 2, |
<>, <>, <>, <>, 3, |
<>, <>, <>, <>, 3, |
<>, <>, <>, <>, 4  |];

